g3 2 1 0	# problem inst_sans_ref
 35 109 1 0 27	# vars, constraints, objectives, ranges, eqns
 27 1	# nonlinear constraints, objectives
 0 0	# network constraints: nonlinear, linear
 8 8 8	# nonlinear vars in constraints, objectives, both
 0 0 0 1	# linear network variables; functions; arith, flags
 0 0 0 0 0	# discrete variables: binary, integer, nonlinear (b,c,o)
 270 35	# nonzeros in Jacobian, gradients
 0 0	# max name lengths: constraints, variables
 0 0 0 0 0	# common exprs: b,c,o,c1,o1
b
0 0 1
0 0 1
0 0 1
0 0 1
0 0 1
0 0 1
0 0 1
0 0 1
0 0 1
0 0 1
0 0 1
0 0 1
0 0 1
0 0 1
0 0 1
0 0 1
0 0 1
0 0 1
0 0 1
0 0 1
0 0 1
0 0 1
0 0 1
0 0 1
0 0 1
0 0 1
0 0 1
0 0 1
0 0 1
0 0 1
0 0 1
0 0 1
0 0 1
0 0 1
0 0 1
r
4 0
4 0
4 0
4 0
4 0
4 0
4 0
4 0
4 0
4 0
4 0
4 0
4 0
4 0
4 0
4 0
4 0
4 0
4 0
4 0
4 0
4 0
4 0
4 0
4 0
4 0
4 0
1 8.52
1 0
1 0
1 0
1 0
1 0
1 0
1 0
1 0
1 0
1 0
1 0
1 0
1 0
1 0
1 0
1 0
1 0
1 0
1 0
1 0
1 0
1 0
1 0
1 0
1 0
1 0
1 0
1 0
1 0
1 0
1 0
1 0
1 0
1 0
1 0
1 0
1 0
1 0
1 0
1 0
1 0
1 0
1 0
1 0
1 0
1 0
2 -1
2 -1
2 -1
2 -1
2 -1
2 -1
2 -1
2 -1
2 -1
2 -1
2 -1
2 -1
2 -1
2 -1
2 -1
2 -1
2 -1
2 -1
2 -1
2 -1
2 -1
2 -1
2 -1
2 -1
2 -1
2 -1
2 -1
2 0
2 0
2 0
2 0
2 0
2 0
2 0
2 0
C0
o16
o2
v0
v0
C1
o16
o2
v0
v1
C2
o16
o2
v0
v3
C3
o16
o2
v0
v4
C4
o16
o2
v0
v5
C5
o16
o2
v0
v7
C6
o16
o2
v1
v1
C7
o16
o2
v1
v4
C8
o16
o2
v1
v5
C9
o16
o2
v1
v6
C10
o16
o2
v1
v7
C11
o16
o2
v2
v2
C12
o16
o2
v2
v4
C13
o16
o2
v2
v6
C14
o16
o2
v2
v7
C15
o16
o2
v3
v3
C16
o16
o2
v3
v4
C17
o16
o2
v3
v5
C18
o16
o2
v3
v6
C19
o16
o2
v3
v7
C20
o16
o2
v4
v4
C21
o16
o2
v4
v5
C22
o16
o2
v5
v5
C23
o16
o2
v5
v7
C24
o16
o2
v6
v6
C25
o16
o2
v6
v7
C26
o16
o2
v7
v7
C27
n0
C28
n0
C29
n0
C30
n0
C31
n0
C32
n0
C33
n0
C34
n0
C35
n0
C36
n0
C37
n0
C38
n0
C39
n0
C40
n0
C41
n0
C42
n0
C43
n0
C44
n0
C45
n0
C46
n0
C47
n0
C48
n0
C49
n0
C50
n0
C51
n0
C52
n0
C53
n0
C54
n0
C55
n0
C56
n0
C57
n0
C58
n0
C59
n0
C60
n0
C61
n0
C62
n0
C63
n0
C64
n0
C65
n0
C66
n0
C67
n0
C68
n0
C69
n0
C70
n0
C71
n0
C72
n0
C73
n0
C74
n0
C75
n0
C76
n0
C77
n0
C78
n0
C79
n0
C80
n0
C81
n0
C82
n0
C83
n0
C84
n0
C85
n0
C86
n0
C87
n0
C88
n0
C89
n0
C90
n0
C91
n0
C92
n0
C93
n0
C94
n0
C95
n0
C96
n0
C97
n0
C98
n0
C99
n0
C100
n0
C101
n0
C102
n0
C103
n0
C104
n0
C105
n0
C106
n0
C107
n0
C108
n0
O0 0
o54
50
o2
o2
n0.060038
v0
v0
o2
o2
n0.096975
v0
v1
o2
o2
n0.16548
v0
v3
o2
o2
n0.000132
v0
v4
o2
o2
n0.068281
v0
v5
o2
o2
n0.028953
v0
v7
o2
o2
n0.096975
v1
v0
o2
o2
n0.928888
v1
v1
o2
o2
n6.9e-05
v1
v4
o2
o2
n0.104444
v1
v5
o2
o2
n-0.211623
v1
v6
o2
o2
n-0.929334
v1
v7
o2
o2
n0.258174
v2
v2
o2
o2
n1.1e-05
v2
v4
o2
o2
n0.10414
v2
v6
o2
o2
n-0.045115
v2
v7
o2
o2
n0.16548
v3
v0
o2
o2
n0.840285
v3
v3
o2
o2
n-1.4e-05
v3
v4
o2
o2
n0.22503
v3
v5
o2
o2
n0.435252
v3
v6
o2
o2
n0.194198
v3
v7
o2
o2
n0.000132
v4
v0
o2
o2
n6.9e-05
v4
v1
o2
o2
n1.1e-05
v4
v2
o2
o2
n-1.4e-05
v4
v3
o2
o2
n0.126399
v4
v4
o2
o2
n-0.000169
v4
v5
o2
o2
n2.1e-05
v4
v6
o2
o2
n3.7e-05
v4
v7
o2
o2
n0.068281
v5
v0
o2
o2
n0.104444
v5
v1
o2
o2
n0.22503
v5
v3
o2
o2
n-0.000169
v5
v4
o2
o2
n0.13587
v5
v5
o2
o2
n-0.042171
v5
v7
o2
o2
n-0.211623
v6
v1
o2
o2
n0.10414
v6
v2
o2
o2
n0.435252
v6
v3
o2
o2
n2.1e-05
v6
v4
o2
o2
n0.619006
v6
v6
o2
o2
n0.124922
v6
v7
o2
o2
n0.028953
v7
v0
o2
o2
n-0.929334
v7
v1
o2
o2
n-0.045115
v7
v2
o2
o2
n0.194198
v7
v3
o2
o2
n3.7e-05
v7
v4
o2
o2
n-0.042171
v7
v5
o2
o2
n0.124922
v7
v6
o2
o2
n1.834532
v7
v7
k34
20
40
54
74
94
114
131
154
158
162
166
170
174
179
183
188
193
197
201
205
210
215
220
224
229
234
238
242
246
250
254
258
262
266
J0 2
0 0
8 1
J1 3
0 0
1 0
9 1
J2 3
0 0
3 0
10 1
J3 3
0 0
4 0
11 1
J4 3
0 0
5 0
12 1
J5 3
0 0
7 0
13 1
J6 2
1 0
14 1
J7 3
1 0
4 0
15 1
J8 3
1 0
5 0
16 1
J9 3
1 0
6 0
17 1
J10 3
1 0
7 0
18 1
J11 2
2 0
19 1
J12 3
2 0
4 0
20 1
J13 3
2 0
6 0
21 1
J14 3
2 0
7 0
22 1
J15 2
3 0
23 1
J16 3
3 0
4 0
24 1
J17 3
3 0
5 0
25 1
J18 3
3 0
6 0
26 1
J19 3
3 0
7 0
27 1
J20 2
4 0
28 1
J21 3
4 0
5 0
29 1
J22 2
5 0
30 1
J23 3
5 0
7 0
31 1
J24 2
6 0
32 1
J25 3
6 0
7 0
33 1
J26 2
7 0
34 1
J27 16
0 -0.17
1 -0.39
2 -0.84
3 0.16
4 -0.3
5 -0.74
6 0.08
7 -0.83
13 0.27
15 1.85
16 -0.15
20 1.26
21 1.85
22 1.8
24 1.28
25 -0.41
J28 2
0 -1
8 1
J29 2
0 -1
9 1
J30 2
0 -1
10 1
J31 2
0 -1
11 1
J32 2
0 -1
12 1
J33 2
0 -1
13 1
J34 2
1 -1
14 1
J35 2
1 -1
15 1
J36 2
1 -1
16 1
J37 2
1 -1
17 1
J38 2
1 -1
18 1
J39 2
2 -1
19 1
J40 2
2 -1
20 1
J41 2
2 -1
21 1
J42 2
2 -1
22 1
J43 2
3 -1
23 1
J44 2
3 -1
24 1
J45 2
3 -1
25 1
J46 2
3 -1
26 1
J47 2
3 -1
27 1
J48 2
4 -1
28 1
J49 2
4 -1
29 1
J50 2
5 -1
30 1
J51 2
5 -1
31 1
J52 2
6 -1
32 1
J53 2
6 -1
33 1
J54 2
7 -1
34 1
J55 2
1 -1
9 1
J56 2
3 -1
10 1
J57 2
4 -1
11 1
J58 2
5 -1
12 1
J59 2
7 -1
13 1
J60 2
4 -1
15 1
J61 2
5 -1
16 1
J62 2
6 -1
17 1
J63 2
7 -1
18 1
J64 2
4 -1
20 1
J65 2
6 -1
21 1
J66 2
7 -1
22 1
J67 2
4 -1
24 1
J68 2
5 -1
25 1
J69 2
6 -1
26 1
J70 2
7 -1
27 1
J71 2
5 -1
29 1
J72 2
7 -1
31 1
J73 2
7 -1
33 1
J74 2
0 -2
8 1
J75 3
0 -1
1 -1
9 1
J76 3
0 -1
3 -1
10 1
J77 3
0 -1
4 -1
11 1
J78 3
0 -1
5 -1
12 1
J79 3
0 -1
7 -1
13 1
J80 2
1 -2
14 1
J81 3
1 -1
4 -1
15 1
J82 3
1 -1
5 -1
16 1
J83 3
1 -1
6 -1
17 1
J84 3
1 -1
7 -1
18 1
J85 2
2 -2
19 1
J86 3
2 -1
4 -1
20 1
J87 3
2 -1
6 -1
21 1
J88 3
2 -1
7 -1
22 1
J89 2
3 -2
23 1
J90 3
3 -1
4 -1
24 1
J91 3
3 -1
5 -1
25 1
J92 3
3 -1
6 -1
26 1
J93 3
3 -1
7 -1
27 1
J94 2
4 -2
28 1
J95 3
4 -1
5 -1
29 1
J96 2
5 -2
30 1
J97 3
5 -1
7 -1
31 1
J98 2
6 -2
32 1
J99 3
6 -1
7 -1
33 1
J100 2
7 -2
34 1
J101 2
0 -1
8 1
J102 2
1 -1
14 1
J103 2
2 -1
19 1
J104 2
3 -1
23 1
J105 2
4 -1
28 1
J106 2
5 -1
30 1
J107 2
6 -1
32 1
J108 2
7 -1
34 1
G0 35
0 -0.08
1 0.94
2 0.05
3 -0.63
4 0.24
5 -0.61
6 -0.03
7 -0.4
8 -0.060038
9 -0.193949
10 -0.33096
11 -0.000265
12 0.973439
13 -0.057907
14 -0.928888
15 -0.000138
16 0.261111
17 -0.166755
18 -0.061331
19 -0.258174
20 -2.1e-05
21 0.401721
22 0.090229
23 -0.840285
24 2.9e-05
25 1.05994
26 0.029496
27 0.081605
28 -0.126399
29 0.000339
30 -0.13587
31 0.084342
32 -0.619006
33 -0.249843
34 -1.834532
